
Gurobi 7.5.2 (linux64, Python) logging started Sun Jan 26 21:56:56 2020

Academic license - for non-commercial use only

Gurobi 7.5.2 (linux64, Python) logging started Sun Jan 26 21:58:55 2020

Academic license - for non-commercial use only

Gurobi 7.5.2 (linux64, Python) logging started Sun Jan 26 22:30:10 2020

Academic license - for non-commercial use only

Gurobi 7.5.2 (linux64, Python) logging started Sun Jan 26 22:31:07 2020

Academic license - for non-commercial use only

Gurobi 7.5.2 (linux64, Python) logging started Sun Jan 26 22:31:53 2020

Academic license - for non-commercial use only

Gurobi 7.5.2 (linux64, Python) logging started Mon Jan 27 01:07:59 2020

Academic license - for non-commercial use only

Gurobi 7.5.2 (linux64, Python) logging started Mon Jan 27 01:08:05 2020

Academic license - for non-commercial use only

Gurobi 7.5.2 (linux64, Python) logging started Mon Jan 27 01:08:46 2020

Academic license - for non-commercial use only
